Li2 Ni2 O4                              
   1.00000000000000     
     2.7903960428760666    0.0000477057672683   -0.0001919509593459
     0.0001295200710287    5.1604517911815488    0.1456637903708969
    -0.0002610557581781    1.8560995743732009    4.7928843341610392
   Li   Ni   O 
     2     2     4
Direct
 -0.0000002793888849  0.0000256639684964 -0.0000077889210980
  0.4999997933988762  0.4999752463688348  0.0000103134453626
  0.0000012089492775  0.5000160660132469  0.4999852652411856
  0.4999989128555161 -0.0000162011958918  0.5000140616824424
 -0.0000063931126259  0.7716955787729038  0.7271539462537445
  0.5000071573439822  0.7282988091517340  0.2728480436647919
  0.0000070259857484  0.2283036406101253  0.2728443309627762
  0.4999925739681105  0.2717011963105503  0.7271518276707950
 
  0.00000000E+00  0.00000000E+00  0.00000000E+00
  0.00000000E+00  0.00000000E+00  0.00000000E+00
  0.00000000E+00  0.00000000E+00  0.00000000E+00
  0.00000000E+00  0.00000000E+00  0.00000000E+00
  0.00000000E+00  0.00000000E+00  0.00000000E+00
  0.00000000E+00  0.00000000E+00  0.00000000E+00
  0.00000000E+00  0.00000000E+00  0.00000000E+00
  0.00000000E+00  0.00000000E+00  0.00000000E+00
