Li2 Ni2 O4                              
 1.
     2.7868905609273842   -0.0001514568151035   -0.0001493165535847
    -0.0001345501128823    5.1556379786547621    0.1325127178488136
    -0.0002513905064190    1.8511580257159836    4.8280419333554239
   Li   Ni   O 
     2     2     4
Direct
  0.0000021128967997 -0.0000100187059093 -0.0000078703504423
  0.4999996270050580  0.5000251741244549 -0.0000243346986545
 -0.0000040085686319  0.4999929558776808  0.5000061491682074
  0.5000029653708908 -0.0000046129304183  0.5000051298768610
  0.0000274778025289  0.7727283674454951  0.7248112512517242
  0.5000124882419715  0.7272936913615357  0.2754076623316125
 -0.0000297549025132  0.2272768481125429  0.2751967415854246
  0.4999890921538959  0.2726975947146186  0.7246052708352669
 
  0.00000000E+00  0.00000000E+00  0.00000000E+00
  0.00000000E+00  0.00000000E+00  0.00000000E+00
  0.00000000E+00  0.00000000E+00  0.00000000E+00
  0.00000000E+00  0.00000000E+00  0.00000000E+00
  0.00000000E+00  0.00000000E+00  0.00000000E+00
  0.00000000E+00  0.00000000E+00  0.00000000E+00
  0.00000000E+00  0.00000000E+00  0.00000000E+00
  0.00000000E+00  0.00000000E+00  0.00000000E+00
