Li2 Mn1 Ni1 O4                          
   1.00000000000000     
     2.9123054374685231   -0.0000117113323785   -0.0000037532595578
    -0.0000200312150300    5.1036287180300590   -0.0234775050217265
    -0.0000146701228317    1.6814683846335277    4.7727512965121770
   Li   Mn   Ni   O 
     2     1     1     4
Direct
 -0.0000007063106926 -0.0000002534782275 -0.0000000204471073
  0.4999995113757245  0.4999998986468601 -0.0000000059010774
  0.0000002546059806  0.5000000930796713  0.5000000174287650
  0.5000001338332648  0.0000000585589668  0.4999999140148068
  0.0000117681911577  0.7382414386214425  0.7269800167166441
  0.5000001352847105  0.7229981890454938  0.2737839314620901
 -0.0000114284969435  0.2617587045390656  0.2730200179595320
  0.5000003315167980  0.2770018709867272  0.7262161287663468
 
  0.00000000E+00  0.00000000E+00  0.00000000E+00
  0.00000000E+00  0.00000000E+00  0.00000000E+00
  0.00000000E+00  0.00000000E+00  0.00000000E+00
  0.00000000E+00  0.00000000E+00  0.00000000E+00
  0.00000000E+00  0.00000000E+00  0.00000000E+00
  0.00000000E+00  0.00000000E+00  0.00000000E+00
  0.00000000E+00  0.00000000E+00  0.00000000E+00
  0.00000000E+00  0.00000000E+00  0.00000000E+00
