Li2 Co1 Ni1 O4                          
   1.00000000000000     
     2.8473825263925625    0.0000000000000000    0.0000000000000000
     0.0000000000000000    4.9993494337459303    0.0149540806295292
     0.0000000000000000    1.6895106251470315    4.7298015303199481
   Li   Co   Ni   O 
     2     1     1     4
Direct
  0.0000000000000000 -0.0000000000000000 -0.0000000000000000
  0.5000000000000000  0.5000000000000000 -0.0000000000000000
  0.0000000000000000  0.5000000000000000  0.5000000000000000
  0.5000000000000000 -0.0000000000000000  0.5000000000000000
  0.0000000000000000  0.7499598780531979  0.7158537744190576
  0.5000000000000000  0.7279721625443514  0.2725610316786425
 -0.0000000000000000  0.2500401219468021  0.2841462255809424
  0.5000000000000000  0.2720278374556486  0.7274389683213576
 
  0.00000000E+00  0.00000000E+00  0.00000000E+00
  0.00000000E+00  0.00000000E+00  0.00000000E+00
  0.00000000E+00  0.00000000E+00  0.00000000E+00
  0.00000000E+00  0.00000000E+00  0.00000000E+00
  0.00000000E+00  0.00000000E+00  0.00000000E+00
  0.00000000E+00  0.00000000E+00  0.00000000E+00
  0.00000000E+00  0.00000000E+00  0.00000000E+00
  0.00000000E+00  0.00000000E+00  0.00000000E+00
