Li2 Mn1 Ni1 O4                          
   1.00000000000000     
     2.9278111773053319   -0.0000189474922260   -0.0000137514330620
    -0.0000362662606146    5.0506821042516634   -0.0013172314740218
    -0.0000346044261748    1.6840190507650277    4.8174675703745384
   Li   Mn   Ni   O 
     2     1     1     4
Direct
  0.0000003618325746  0.0000001668479784 -0.0000001572074475
  0.5000002695845310 -0.0000002592127669  0.4999998807716368
  0.4999998607866143  0.4999997718974407  0.0000001204183780
 -0.0000000442814860  0.5000003646860504  0.4999998468149744
 -0.0000100686685772  0.7257452537878163  0.7770662069096134
  0.5000197573133692  0.7289148055901941  0.2371302025480200
  0.0000097987049295  0.2742547143000352  0.2229338652279419
  0.4999800647280446  0.2710851821032521  0.7628700345168830
 
  0.00000000E+00  0.00000000E+00  0.00000000E+00
  0.00000000E+00  0.00000000E+00  0.00000000E+00
  0.00000000E+00  0.00000000E+00  0.00000000E+00
  0.00000000E+00  0.00000000E+00  0.00000000E+00
  0.00000000E+00  0.00000000E+00  0.00000000E+00
  0.00000000E+00  0.00000000E+00  0.00000000E+00
  0.00000000E+00  0.00000000E+00  0.00000000E+00
  0.00000000E+00  0.00000000E+00  0.00000000E+00
