Li2 Co1 Ni1 O4                          
   1.00000000000000     
     2.8451267148814972    0.0000000000000000    0.0000000000000000
     0.0000000000000000    5.0367579452306233   -0.0026019210018989
     0.0000000000000000    1.6860767780776558    4.7014190878298745
   Li   Co   Ni   O 
     2     1     1     4
Direct
  0.5000000000000000  0.5000000000000000 -0.0000000000000000
 -0.0000000000000000  0.5000000000000000  0.5000000000000000
 -0.0000000000000000  0.0000000000000000 -0.0000000000000000
  0.5000000000000000  0.0000000000000000  0.5000000000000000
 -0.0000000000000000  0.7858926987367589  0.7498543007263618
  0.5000000000000000  0.7711114584347499  0.2281901962946130
  0.0000000000000000  0.2141073012632411  0.2501456992736382
  0.5000000000000000  0.2288885415652502  0.7718098037053870
 
  0.00000000E+00  0.00000000E+00  0.00000000E+00
  0.00000000E+00  0.00000000E+00  0.00000000E+00
  0.00000000E+00  0.00000000E+00  0.00000000E+00
  0.00000000E+00  0.00000000E+00  0.00000000E+00
  0.00000000E+00  0.00000000E+00  0.00000000E+00
  0.00000000E+00  0.00000000E+00  0.00000000E+00
  0.00000000E+00  0.00000000E+00  0.00000000E+00
  0.00000000E+00  0.00000000E+00  0.00000000E+00
