Li2 Co1 Ni1 O4
1.0
2.918000 0.000000 0.000000
0.000000 5.000000 0.000000
0.000000 1.675600 4.787200
Li Co Ni O
2 1 1 4
direct
0.500000 0.500000 0.000000 Li
0.000000 0.500000 0.500000 Li
0.000000 0.000000 0.000000 Co
0.500000 0.000000 0.500000 Ni
0.000000 0.750000 0.750000 O
0.500000 0.750000 0.250000 O
0.000000 0.250000 0.250000 O
0.500000 0.250000 0.750000 O
