Li2 Ni2 O4                              
 1.
     2.7927614710297517   -0.0003635543015741   -0.0002309505038119
    -0.0006110240069508    5.1718846198101946    0.1337460042768947
    -0.0004659168093421    1.8626709030304778    4.8120120367789214
   Li   Ni   O 
     2     2     4
Direct
  0.0000015362938420  0.5000190595512489  0.4999301015662589
  0.4999989263101262  0.4999743097635694  0.0000716883471769
  0.0000005241063516  0.0000324127502098 -0.0000458340267328
  0.4999995716884241 -0.0000357612260234  0.5000483509691462
 -0.0001286843868216  0.7754058706083319  0.7266926749335433
  0.4999042511946499  0.7754678851502724  0.2267312044908575
  0.0001306225551612  0.2246274975201923  0.2732863602034389
  0.5000932522382666  0.2245087258821990  0.7732854535163112
 
  0.00000000E+00  0.00000000E+00  0.00000000E+00
  0.00000000E+00  0.00000000E+00  0.00000000E+00
  0.00000000E+00  0.00000000E+00  0.00000000E+00
  0.00000000E+00  0.00000000E+00  0.00000000E+00
  0.00000000E+00  0.00000000E+00  0.00000000E+00
  0.00000000E+00  0.00000000E+00  0.00000000E+00
  0.00000000E+00  0.00000000E+00  0.00000000E+00
  0.00000000E+00  0.00000000E+00  0.00000000E+00
