Li2 Ni2 O4                              
   1.00000000000000     
     2.8977227656142963   -0.0003888705718622    0.0001133557397450
    -0.0007234162769870    4.9258207288167668   -0.0963334380127698
    -0.0000718531074174    1.5547292043364107    4.6723793767817456
   Li   Ni   O 
     2     2     4
Direct
  0.0000259625778835 -0.0004526285663041  0.0005355749149871
 -0.0000048546069163  0.5001366949829003  0.4998285182813862
  0.5000108195955708  0.5005079925493019 -0.0006678182941009
  0.4999911075832442  0.0001296519255839  0.4993618841386871
  0.0001661057250697  0.7525447927050455  0.7475163248086084
  0.5000410607753204  0.7653782999411287  0.2663616116200693
 -0.0001594027618798  0.2479536832085305  0.2521339485934538
  0.4999292011117075  0.2338015132538133  0.7349299559369094
 
  0.00000000E+00  0.00000000E+00  0.00000000E+00
  0.00000000E+00  0.00000000E+00  0.00000000E+00
  0.00000000E+00  0.00000000E+00  0.00000000E+00
  0.00000000E+00  0.00000000E+00  0.00000000E+00
  0.00000000E+00  0.00000000E+00  0.00000000E+00
  0.00000000E+00  0.00000000E+00  0.00000000E+00
  0.00000000E+00  0.00000000E+00  0.00000000E+00
  0.00000000E+00  0.00000000E+00  0.00000000E+00
