Li2 Ni2 O4
1.0
2.915150 0.000000 0.000000
0.000000 5.118490 0.000000
0.000000 1.708168 4.776830
Li Ni O
2  2  4
Direct
0.000000 0.000000 0.000000 Li
0.000000 0.500000 0.500000 Li
0.500000 0.500000 0.000000 Ni
0.500000 0.000000 0.500000 Ni
0.000000 0.750000 0.750000 O
0.500000 0.750000 0.250000 O
0.000000 0.250000 0.250000 O
0.500000 0.250000 0.750000 O
